24 4
97 36 25 34 69 27 49 55 48 43 18 43 8 38 50 51 34 95 40 30 65 52 53 5
98 29 30 51 52 42 45 64 66 31 18 69 22 37 37 47 38 73 43 43 56 44 36 14
97 24 20 39 65 47 46 37 56 43 27 55 34 31 47 42 57 77 54 32 54 32 62 20
88 38 42 57 72 26 32 54 53 22 33 66 26 20 43 50 58 91 41 33 48 52 46 35
